PROBLEM NAME: small_1_BoundedStronglyCorrelated_n14_m39_c1
KNAPSACK DATA TYPE:
DIMENSION: 14
NUMBER OF ITEMS: 39
CAPACITY OF KNAPSACK: 1900
MIN SPEED: 0.1
MAX SPEED: 1.0
RENTING RATIO: 1.0
EDGE_WEIGHT_TYPE: CEIL_2D
NODE_COORD_SECTION	(INDEX, X, Y): 
1	766	233
2	894	117
3	506	926
4	535	283
5	463	585
6	908	370
7	103	987
8	860	228
9	101	156
10	484	770
11	889	132
12	497	601
13	542	567
14	650	594
ITEMS SECTION	(INDEX, PROFIT, WEIGHT, ASSIGNED NODE NUMBER): 
1	362	262	2
2	936	836	2
3	616	516	2
4	960	860	3
5	892	792	3
6	779	679	3
7	773	673	4
8	141	41	4
9	874	774	4
10	368	268	5
11	731	631	5
12	310	210	5
13	120	20	6
14	850	750	6
15	711	611	6
16	580	480	7
17	519	419	7
18	823	723	7
19	881	781	8
20	433	333	8
21	643	543	8
22	474	374	9
23	731	631	9
24	589	489	9
25	482	382	10
26	459	359	10
27	806	706	10
28	297	197	11
29	880	780	11
30	1027	927	11
31	483	383	12
32	745	645	12
33	559	459	12
34	765	665	13
35	952	852	13
36	627	527	13
37	190	90	14
38	648	548	14
39	788	688	14
